node
#name	v	h	weight
1	0	0	0
2	0	0	0
3	0	0	0
4	0	0	60186
5	0	0	54691
6	0	0	99295
7	0	0	10320
8	0	0	63356
9	0	0	0
10	0	0	0
11	0	0	20097
12	0	0	0
13	0	0	0
14	0	0	3428
15	0	0	0
16	0	0	0
17	0	0	0
18	0	0	0
19	0	0	31889
20	0	0	0
21	0	0	0
22	0	0	0
23	0	0	0
24	0	0	0
25	0	0	0
26	0	0	0
27	0	0	0
28	0	0	0
29	0	0	0
30	0	0	0
31	0	0	0
32	0	0	0
33	0	0	0
34	0	0	56437
35	0	0	0
36	0	0	0
37	0	0	0
38	0	0	0
39	0	0	0
40	0	0	0
41	0	0	90394
42	0	0	0
43	0	0	0
44	0	0	0
45	0	0	0
46	0	0	0
47	0	0	0
48	0	0	0
49	0	0	0
50	0	0	0
51	0	0	0
52	0	0	0
53	0	0	0
54	0	0	94147
55	0	0	96544
56	0	0	0
57	0	0	0
58	0	0	0
59	0	0	0
60	0	0	0
61	0	0	0
62	0	0	47920
63	0	0	0
64	0	0	14375
65	0	0	0
66	0	0	0
67	0	0	25104
68	0	0	0
69	0	0	0
70	0	0	0
71	0	0	42573
72	0	0	0
73	0	0	0
74	0	0	0
75	0	0	0
76	0	0	0
77	0	0	0
78	0	0	53149
79	0	0	0
80	0	0	49694
81	0	0	0
82	0	0	40696
83	0	0	0
84	0	0	36478
85	0	0	0
86	0	0	0
87	0	0	0
88	0	0	0
89	0	0	0
90	0	0	0
91	0	0	0
92	0	0	0
93	0	0	0
94	0	0	85439
95	0	0	0
96	0	0	28013
97	0	0	5978
98	0	0	43282
99	0	0	0
100	0	0	0
101	0	0	0
102	0	0	81045
103	0	0	0
104	0	0	0
105	0	0	0
106	0	0	0
107	0	0	82336
108	0	0	0
109	0	0	0
110	0	0	0
111	0	0	0
112	0	0	0
113	0	0	15130
114	0	0	0
115	0	0	0
116	0	0	6109
117	0	0	0
118	0	0	0
119	0	0	0
120	0	0	17976
121	0	0	0
122	0	0	20978
123	0	0	78375
124	0	0	0
125	0	0	0
126	0	0	0
127	0	0	0
128	0	0	0
129	0	0	0
130	0	0	0
131	0	0	47520
132	0	0	0
133	0	0	84077
134	0	0	64554
135	0	0	30766
136	0	0	0
137	0	0	0
138	0	0	84208
139	0	0	0
140	0	0	0
141	0	0	0
142	0	0	10600
143	0	0	0
144	0	0	0
145	0	0	0
146	0	0	90579
147	0	0	79053
148	0	0	0
149	0	0	0
150	0	0	0
151	0	0	0
152	0	0	0
153	0	0	5841
154	0	0	0
155	0	0	0
156	0	0	77916
157	0	0	87341
158	0	0	0
159	0	0	0
160	0	0	0
161	0	0	0
162	0	0	0
163	0	0	0
164	0	0	0
165	0	0	0
166	0	0	0
167	0	0	0
168	0	0	0
169	0	0	34861
170	0	0	0
171	0	0	0
172	0	0	0
173	0	0	0
174	0	0	75563
175	0	0	0
176	0	0	0
177	0	0	0
178	0	0	0
179	0	0	0
180	0	0	0
181	0	0	0
182	0	0	0
183	0	0	0
184	0	0	71571
185	0	0	0
186	0	0	18451
187	0	0	0
188	0	0	0
189	0	0	0
190	0	0	0
191	0	0	0
192	0	0	18560
193	0	0	0
194	0	0	0
195	0	0	0
196	0	0	0
197	0	0	0
198	0	0	0
199	0	0	54926
200	0	0	0
201	0	0	0
202	0	0	0
203	0	0	38783
204	0	0	0
205	0	0	0
206	0	0	33817
207	0	0	91100
208	0	0	0
209	0	0	0
210	0	0	0
211	0	0	0
212	0	0	7912
213	0	0	83118
214	0	0	11182
215	0	0	0
216	0	0	55175
217	0	0	0
218	0	0	0
219	0	0	0
220	0	0	22535
221	0	0	0
222	0	0	0
223	0	0	0
224	0	0	28522
225	0	0	56968
226	0	0	80535
227	0	0	0
228	0	0	0
229	0	0	51617
230	0	0	1384
231	0	0	63025
232	0	0	25522
233	0	0	0
234	0	0	0
235	0	0	0
236	0	0	0
237	0	0	0
238	0	0	0
239	0	0	0
240	0	0	0
241	0	0	81475
242	0	0	0
243	0	0	19802
244	0	0	0
245	0	0	37987
246	0	0	0
247	0	0	0
248	0	0	0
249	0	0	15445
250	0	0	0
251	0	0	0
252	0	0	7090
253	0	0	0
254	0	0	24700
255	0	0	0
256	0	0	0
257	0	0	0
258	0	0	37215
259	0	0	0
260	0	0	32700
261	0	0	61157
262	0	0	0
263	0	0	42633
264	0	0	0
265	0	0	0
266	0	0	0
267	0	0	0
268	0	0	0
269	0	0	18472
270	0	0	95379
271	0	0	0
272	0	0	50852
273	0	0	0
274	0	0	0
275	0	0	0
276	0	0	0
277	0	0	0
278	0	0	0
279	0	0	4059
280	0	0	0
281	0	0	0
282	0	0	0
283	0	0	51653
284	0	0	0
285	0	0	0
286	0	0	67028
287	0	0	0
288	0	0	0
289	0	0	0
290	0	0	17880
291	0	0	0
292	0	0	0
293	0	0	92378
294	0	0	0
295	0	0	21759
296	0	0	64536
297	0	0	55525
298	0	0	96721
299	0	0	5122
300	0	0	25594
301	0	0	0
302	0	0	0
303	0	0	0
304	0	0	0
305	0	0	40845
306	0	0	0
307	0	0	7873
308	0	0	0
309	0	0	0
310	0	0	0
311	0	0	0
312	0	0	0
313	0	0	25420
314	0	0	15789
315	0	0	20940
316	0	0	0
317	0	0	0
318	0	0	0
319	0	0	0
320	0	0	0
321	0	0	54846
322	0	0	13078
323	0	0	0
324	0	0	0
325	0	0	0
326	0	0	94597
327	0	0	0
328	0	0	35443
329	0	0	0
330	0	0	0
331	0	0	0
332	0	0	8748
333	0	0	0
334	0	0	0
335	0	0	0
336	0	0	87825
337	0	0	32020
338	0	0	25900
339	0	0	0
340	0	0	0
341	0	0	27692
342	0	0	19333
343	0	0	0
344	0	0	32412
345	0	0	0
346	0	0	0
347	0	0	0
348	0	0	0
349	0	0	0
350	0	0	0
351	0	0	0
352	0	0	0
353	0	0	0
354	0	0	0
355	0	0	78510
356	0	0	0
357	0	0	40915
358	0	0	0
359	0	0	28741
360	0	0	0
361	0	0	0
362	0	0	0
363	0	0	0
364	0	0	56572
365	0	0	0
366	0	0	0
367	0	0	0
368	0	0	0
369	0	0	0
370	0	0	0
371	0	0	0
372	0	0	0
373	0	0	13478
374	0	0	0
375	0	0	0
376	0	0	0
377	0	0	0
378	0	0	57029
379	0	0	0
380	0	0	35539
381	0	0	21534
382	0	0	0
383	0	0	0
384	0	0	0
385	0	0	88329
386	0	0	0
387	0	0	0
388	0	0	0
389	0	0	91890
390	0	0	0
391	0	0	0
392	0	0	0
393	0	0	0
394	0	0	0
395	0	0	0
396	0	0	0
397	0	0	0
398	0	0	0
399	0	0	0
400	0	0	0
link
#link	x	y	length	RIN	notes
1	1	13	68271	na	na
2	1	100	32065	na	na
3	1	104	79885	na	na
4	1	357	65813	na	na
5	1	378	58323	na	na
6	2	13	76056	na	na
7	2	25	54588	na	na
8	2	57	45423	na	na
9	2	79	62245	na	na
10	2	174	35210	na	na
11	2	200	35753	na	na
12	2	231	95837	na	na
13	2	346	60682	na	na
14	2	347	9119	na	na
15	3	52	77342	na	na
16	3	55	12727	na	na
17	3	87	31077	na	na
18	3	213	3036	na	na
19	3	249	43513	na	na
20	3	271	64028	na	na
21	3	295	30873	na	na
22	3	333	80652	na	na
23	3	344	14548	na	na
24	4	24	66785	na	na
25	4	62	6983	na	na
26	4	108	85078	na	na
27	4	111	45348	na	na
28	4	123	24499	na	na
29	4	162	11449	na	na
30	4	207	78800	na	na
31	4	212	84992	na	na
32	4	221	49258	na	na
33	4	230	79533	na	na
34	4	253	55371	na	na
35	4	351	66763	na	na
36	4	361	14269	na	na
37	5	67	84018	na	na
38	5	358	50708	na	na
39	6	59	57803	na	na
40	6	133	66380	na	na
41	6	170	47983	na	na
42	6	214	44654	na	na
43	6	331	29027	na	na
44	7	129	83136	na	na
45	7	162	26160	na	na
46	7	188	45407	na	na
47	7	240	74063	na	na
48	7	245	30393	na	na
49	7	246	59196	na	na
50	7	249	99952	na	na
51	7	295	66043	na	na
52	7	299	27050	na	na
53	8	12	40278	na	na
54	8	111	70097	na	na
55	8	116	93324	na	na
56	8	137	88171	na	na
57	8	139	58269	na	na
58	8	288	39047	na	na
59	8	299	64300	na	na
60	9	16	91339	na	na
61	9	30	421	na	na
62	9	201	96352	na	na
63	9	244	19348	na	na
64	9	256	66376	na	na
65	9	259	53944	na	na
66	9	272	46450	na	na
67	9	353	9960	na	na
68	10	40	14257	na	na
69	10	92	31595	na	na
70	10	160	25695	na	na
71	10	204	69770	na	na
72	10	246	87252	na	na
73	10	260	77118	na	na
74	10	266	46860	na	na
75	10	368	4524	na	na
76	11	24	86562	na	na
77	11	364	83600	na	na
78	12	134	95210	na	na
79	12	147	73373	na	na
80	12	155	69987	na	na
81	12	194	73798	na	na
82	12	203	90820	na	na
83	12	209	63966	na	na
84	12	347	73243	na	na
85	12	369	24546	na	na
86	13	15	93442	na	na
87	13	51	70665	na	na
88	13	68	43714	na	na
89	13	82	29441	na	na
90	13	224	65795	na	na
91	13	354	29812	na	na
92	14	27	39503	na	na
93	14	130	13643	na	na
94	14	338	43247	na	na
95	14	349	82347	na	na
96	15	53	74413	na	na
97	15	58	70726	na	na
98	15	307	92431	na	na
99	15	334	44494	na	na
100	16	119	49592	na	na
101	16	161	28903	na	na
102	16	165	44864	na	na
103	16	317	72450	na	na
104	16	332	71527	na	na
105	16	364	51146	na	na
106	16	399	49353	na	na
107	17	52	10098	na	na
108	17	115	69035	na	na
109	17	172	3120	na	na
110	17	237	93211	na	na
111	17	314	91483	na	na
112	17	377	36450	na	na
113	18	120	14904	na	na
114	18	179	63584	na	na
115	18	186	47382	na	na
116	18	245	19738	na	na
117	19	37	52216	na	na
118	19	114	99691	na	na
119	19	201	58105	na	na
120	19	295	43071	na	na
121	19	396	36626	na	na
122	20	229	62695	na	na
123	20	290	10170	na	na
124	21	78	8185	na	na
125	21	105	32416	na	na
126	21	175	6639	na	na
127	21	286	16860	na	na
128	21	359	43972	na	na
129	21	369	57394	na	na
130	21	393	63456	na	na
131	22	53	63528	na	na
132	22	90	49104	na	na
133	22	130	33226	na	na
134	22	225	30175	na	na
135	22	292	6122	na	na
136	22	374	85892	na	na
137	23	101	54655	na	na
138	23	349	16988	na	na
139	24	48	93353	na	na
140	24	95	33655	na	na
141	24	260	35358	na	na
142	25	41	56688	na	na
143	25	151	56866	na	na
144	25	196	2180	na	na
145	25	225	84724	na	na
146	25	231	70699	na	na
147	25	275	15490	na	na
148	25	310	33257	na	na
149	25	311	46897	na	na
150	25	372	12237	na	na
151	26	214	40786	na	na
152	26	304	23570	na	na
153	26	309	76795	na	na
154	26	374	72572	na	na
155	27	103	38614	na	na
156	27	189	89812	na	na
157	27	239	73464	na	na
158	27	262	15655	na	na
159	28	58	74060	na	na
160	28	143	69134	na	na
161	28	145	22611	na	na
162	28	189	11975	na	na
163	28	237	5274	na	na
164	28	273	12364	na	na
165	28	287	85864	na	na
166	28	307	48741	na	na
167	28	312	99539	na	na
168	29	133	37358	na	na
169	29	192	45074	na	na
170	29	203	43386	na	na
171	29	277	2308	na	na
172	30	79	17395	na	na
173	30	83	53736	na	na
174	30	95	19560	na	na
175	30	178	22055	na	na
176	30	264	44241	na	na
177	30	305	83339	na	na
178	31	53	51282	na	na
179	31	147	55631	na	na
180	31	190	87222	na	na
181	31	216	72584	na	na
182	31	220	15637	na	na
183	31	282	30070	na	na
184	31	327	83868	na	na
185	31	337	92045	na	na
186	32	53	29416	na	na
187	32	71	41821	na	na
188	32	130	70901	na	na
189	32	131	77151	na	na
190	32	166	77314	na	na
191	32	210	72789	na	na
192	32	317	988	na	na
193	33	49	95548	na	na
194	33	176	71701	na	na
195	33	302	68338	na	na
196	33	314	54461	na	na
197	33	325	93732	na	na
198	33	346	12906	na	na
199	34	71	66604	na	na
200	34	276	63780	na	na
201	34	287	34779	na	na
202	34	361	39306	na	na
203	35	70	96731	na	na
204	35	94	19657	na	na
205	35	277	35200	na	na
206	35	281	16741	na	na
207	35	390	91677	na	na
208	36	62	41851	na	na
209	36	80	12620	na	na
210	36	202	52982	na	na
211	36	392	22947	na	na
212	37	83	11602	na	na
213	37	88	28343	na	na
214	37	190	5912	na	na
215	37	237	22587	na	na
216	37	238	44214	na	na
217	37	297	70940	na	na
218	37	353	56268	na	na
219	37	358	73837	na	na
220	37	363	2965	na	na
221	38	60	18138	na	na
222	38	192	75555	na	na
223	38	270	67645	na	na
224	38	311	97791	na	na
225	38	323	25739	na	na
226	39	123	30457	na	na
227	39	213	52302	na	na
228	39	340	28905	na	na
229	39	389	88128	na	na
230	40	50	56520	na	na
231	40	105	59283	na	na
232	40	158	95170	na	na
233	40	187	34985	na	na
234	40	218	89285	na	na
235	40	322	87611	na	na
236	40	399	74286	na	na
237	40	400	35578	na	na
238	41	91	23392	na	na
239	41	135	4288	na	na
240	41	176	31054	na	na
241	41	211	94432	na	na
242	41	219	85860	na	na
243	41	304	32730	na	na
244	41	314	87945	na	na
245	41	362	85036	na	na
246	42	84	16997	na	na
247	42	250	19705	na	na
248	42	342	49703	na	na
249	43	191	36828	na	na
250	43	200	96049	na	na
251	43	312	99614	na	na
252	43	382	77365	na	na
253	43	383	65963	na	na
254	44	102	26602	na	na
255	44	111	16112	na	na
256	44	116	71625	na	na
257	44	206	8464	na	na
258	44	276	21557	na	na
259	44	344	29033	na	na
260	44	394	62709	na	na
261	45	331	49142	na	na
262	45	337	89118	na	na
263	46	56	92894	na	na
264	46	129	94644	na	na
265	46	145	17503	na	na
266	46	153	26411	na	na
267	46	169	61291	na	na
268	46	239	22122	na	na
269	47	95	87623	na	na
270	47	212	80713	na	na
271	47	247	71873	na	na
272	47	329	39084	na	na
273	47	356	6609	na	na
274	47	358	45694	na	na
275	47	360	87731	na	na
276	48	67	5117	na	na
277	48	80	39871	na	na
278	48	149	38256	na	na
279	48	183	6210	na	na
280	48	189	28141	na	na
281	48	289	22436	na	na
282	48	319	35862	na	na
283	48	320	18051	na	na
284	48	340	1378	na	na
285	48	383	23091	na	na
286	48	398	32830	na	na
287	49	213	30646	na	na
288	49	275	47152	na	na
289	50	156	99978	na	na
290	50	165	63617	na	na
291	50	236	23827	na	na
292	50	279	86426	na	na
293	50	295	53719	na	na
294	50	308	69164	na	na
295	50	318	9490	na	na
296	50	372	71924	na	na
297	50	392	79330	na	na
298	51	54	79606	na	na
299	51	91	4925	na	na
300	51	180	89593	na	na
301	51	221	67499	na	na
302	52	82	36157	na	na
303	52	116	1816	na	na
304	52	131	70639	na	na
305	52	135	23558	na	na
306	52	253	31372	na	na
307	53	76	74064	na	na
308	53	97	38688	na	na
309	53	219	10811	na	na
310	53	257	51267	na	na
311	53	311	99119	na	na
312	54	56	93261	na	na
313	54	88	44242	na	na
314	54	93	71225	na	na
315	54	94	56614	na	na
316	54	244	35081	na	na
317	54	260	37133	na	na
318	54	393	8978	na	na
319	55	166	59103	na	na
320	55	216	23346	na	na
321	56	72	33522	na	na
322	56	202	21691	na	na
323	56	232	68197	na	na
324	56	271	45657	na	na
325	56	281	85569	na	na
326	56	285	12739	na	na
327	56	349	42409	na	na
328	57	151	17533	na	na
329	57	190	34958	na	na
330	57	202	96585	na	na
331	57	213	94903	na	na
332	57	262	3862	na	na
333	57	283	13237	na	na
334	57	321	85796	na	na
335	57	368	83251	na	na
336	58	105	4533	na	na
337	58	157	48561	na	na
338	58	172	35040	na	na
339	58	181	93949	na	na
340	58	230	78087	na	na
341	59	72	4863	na	na
342	59	247	57211	na	na
343	59	327	47412	na	na
344	60	71	29848	na	na
345	60	180	85230	na	na
346	60	236	84982	na	na
347	60	399	94777	na	na
348	61	116	97345	na	na
349	61	125	81632	na	na
350	61	139	18701	na	na
351	61	201	15084	na	na
352	61	250	24144	na	na
353	61	343	79759	na	na
354	62	70	8375	na	na
355	62	81	44798	na	na
356	62	197	24755	na	na
357	62	217	31235	na	na
358	62	297	39947	na	na
359	62	322	83462	na	na
360	62	323	86499	na	na
361	62	325	26447	na	na
362	62	364	81961	na	na
363	62	370	77175	na	na
364	63	222	61639	na	na
365	63	227	73217	na	na
366	63	239	72925	na	na
367	63	244	24879	na	na
368	63	261	42665	na	na
369	63	275	19300	na	na
370	63	341	37901	na	na
371	63	385	76772	na	na
372	63	394	39792	na	na
373	64	107	93740	na	na
374	64	241	43306	na	na
375	64	261	33005	na	na
376	64	317	57164	na	na
377	64	367	74000	na	na
378	64	386	43217	na	na
379	65	74	35664	na	na
380	65	98	4426	na	na
381	65	195	6132	na	na
382	65	216	86198	na	na
383	65	350	98618	na	na
384	66	73	89496	na	na
385	66	111	54523	na	na
386	66	226	91521	na	na
387	67	219	99046	na	na
388	67	228	1033	na	na
389	67	238	28078	na	na
390	67	247	85540	na	na
391	67	302	17671	na	na
392	68	87	51170	na	na
393	68	156	444	na	na
394	68	216	31478	na	na
395	68	247	87217	na	na
396	68	248	24810	na	na
397	68	305	82909	na	na
398	68	352	36398	na	na
399	69	160	29282	na	na
400	69	229	52957	na	na
401	69	396	1327	na	na
402	70	85	55804	na	na
403	70	150	97969	na	na
404	70	179	82229	na	na
405	70	232	96297	na	na
406	70	296	32282	na	na
407	71	164	73275	na	na
408	71	294	56161	na	na
409	71	388	46796	na	na
410	72	73	84091	na	na
411	72	110	72957	na	na
412	72	308	32556	na	na
413	72	367	8128	na	na
414	72	379	19289	na	na
415	72	391	95637	na	na
416	73	115	45249	na	na
417	73	146	48111	na	na
418	73	149	73360	na	na
419	73	196	26536	na	na
420	73	215	83652	na	na
421	73	285	9639	na	na
422	74	109	46273	na	na
423	74	263	99002	na	na
424	74	312	32984	na	na
425	74	334	45565	na	na
426	75	113	77563	na	na
427	75	212	63980	na	na
428	75	290	71488	na	na
429	75	365	12265	na	na
430	76	91	21242	na	na
431	76	98	12037	na	na
432	76	107	35973	na	na
433	76	109	29294	na	na
434	76	160	16031	na	na
435	76	296	64691	na	na
436	76	366	60560	na	na
437	77	183	18151	na	na
438	77	215	73499	na	na
439	77	279	30782	na	na
440	77	304	84597	na	na
441	77	348	205	na	na
442	77	355	93324	na	na
443	77	366	86050	na	na
444	78	227	70088	na	na
445	78	256	96231	na	na
446	78	326	34861	na	na
447	79	219	55539	na	na
448	79	308	95532	na	na
449	80	154	68774	na	na
450	80	215	39471	na	na
451	80	231	70924	na	na
452	81	112	57271	na	na
453	81	134	2447	na	na
454	81	204	84775	na	na
455	81	234	47004	na	na
456	82	202	83329	na	na
457	82	204	94499	na	na
458	82	264	937	na	na
459	83	84	51844	na	na
460	83	122	67517	na	na
461	83	129	36690	na	na
462	83	226	19987	na	na
463	83	242	65269	na	na
464	83	260	40434	na	na
465	83	261	66652	na	na
466	83	280	13817	na	na
467	83	326	86246	na	na
468	84	141	25001	na	na
469	84	151	96108	na	na
470	84	165	32492	na	na
471	84	241	22683	na	na
472	84	263	16850	na	na
473	84	374	2527	na	na
474	85	112	82491	na	na
475	85	181	73126	na	na
476	85	209	40987	na	na
477	85	217	37610	na	na
478	85	293	37042	na	na
479	85	359	69047	na	na
480	85	373	59492	na	na
481	86	110	77729	na	na
482	86	269	69275	na	na
483	87	103	53803	na	na
484	87	122	55880	na	na
485	87	215	77092	na	na
486	87	285	52960	na	na
487	87	296	43251	na	na
488	87	299	50521	na	na
489	87	315	28214	na	na
490	87	371	59554	na	na
491	88	91	66309	na	na
492	88	195	57702	na	na
493	88	220	27381	na	na
494	88	265	10410	na	na
495	88	279	49572	na	na
496	88	338	47000	na	na
497	88	378	15822	na	na
498	89	113	48689	na	na
499	89	194	55541	na	na
500	90	262	39420	na	na
501	90	265	7842	na	na
502	90	278	7486	na	na
503	90	374	71066	na	na
504	91	139	99561	na	na
505	91	203	53307	na	na
506	91	218	23016	na	na
507	91	245	81032	na	na
508	91	247	4049	na	na
509	91	288	12518	na	na
510	91	317	21969	na	na
511	91	352	98100	na	na
512	93	99	5091	na	na
513	93	197	59113	na	na
514	93	379	33947	na	na
515	93	392	22261	na	na
516	94	98	56076	na	na
517	94	113	82651	na	na
518	94	156	28004	na	na
519	94	167	57168	na	na
520	94	195	84602	na	na
521	95	126	77356	na	na
522	95	246	77703	na	na
523	95	301	52240	na	na
524	95	315	82634	na	na
525	95	352	7233	na	na
526	96	130	75909	na	na
527	96	207	10188	na	na
528	96	252	10782	na	na
529	96	261	1749	na	na
530	96	291	67279	na	na
531	96	350	42858	na	na
532	97	148	26238	na	na
533	97	164	8020	na	na
534	97	297	45382	na	na
535	97	315	58566	na	na
536	97	367	89796	na	na
537	98	103	90425	na	na
538	98	114	52811	na	na
539	98	162	43159	na	na
540	98	169	32095	na	na
541	98	220	81937	na	na
542	98	247	4632	na	na
543	98	249	86570	na	na
544	98	398	91132	na	na
545	99	300	70608	na	na
546	100	105	61841	na	na
547	100	136	15534	na	na
548	100	172	40690	na	na
549	100	216	40031	na	na
550	100	351	34476	na	na
551	100	384	7237	na	na
552	101	155	93909	na	na
553	101	339	68897	na	na
554	102	187	90281	na	na
555	102	312	86714	na	na
556	102	327	75611	na	na
557	103	253	87062	na	na
558	103	298	22283	na	na
559	103	378	59775	na	na
560	104	107	31606	na	na
561	104	166	61119	na	na
562	104	359	48105	na	na
563	104	388	89124	na	na
564	105	138	75251	na	na
565	105	150	11990	na	na
566	105	210	46215	na	na
567	105	279	35442	na	na
568	105	320	38193	na	na
569	106	246	57890	na	na
570	106	287	89801	na	na
571	106	298	85879	na	na
572	106	385	49463	na	na
573	107	127	38944	na	na
574	107	136	30708	na	na
575	107	149	23007	na	na
576	107	236	40403	na	na
577	107	319	91059	na	na
578	107	324	60218	na	na
579	107	350	94435	na	na
580	107	399	23060	na	na
581	108	119	74303	na	na
582	108	143	19186	na	na
583	108	190	22610	na	na
584	108	221	81386	na	na
585	108	293	68258	na	na
586	108	371	73742	na	na
587	108	383	18280	na	na
588	109	199	91470	na	na
589	109	256	61466	na	na
590	110	166	22174	na	na
591	110	174	99634	na	na
592	110	221	65362	na	na
593	110	378	88668	na	na
594	110	388	81527	na	na
595	111	200	41450	na	na
596	112	245	3105	na	na
597	112	310	47350	na	na
598	112	371	34366	na	na
599	112	388	11475	na	na
600	113	321	46656	na	na
601	114	147	96835	na	na
602	114	162	42051	na	na
603	114	167	9846	na	na
604	114	186	12885	na	na
605	114	189	46578	na	na
606	114	318	67654	na	na
607	114	338	64423	na	na
608	114	360	77062	na	na
609	115	161	74361	na	na
610	115	201	75269	na	na
611	115	341	72312	na	na
612	116	241	36146	na	na
613	116	251	50090	na	na
614	116	277	61166	na	na
615	116	316	87895	na	na
616	116	391	26572	na	na
617	117	154	65649	na	na
618	117	161	75946	na	na
619	117	222	27673	na	na
620	117	277	19167	na	na
621	117	322	68902	na	na
622	117	370	73194	na	na
623	117	374	67351	na	na
624	118	125	30700	na	na
625	118	230	94201	na	na
626	118	275	49535	na	na
627	118	337	54482	na	na
628	119	140	2163	na	na
629	119	241	4688	na	na
630	119	242	132	na	na
631	120	142	91406	na	na
632	120	145	66374	na	na
633	120	205	76841	na	na
634	120	293	92209	na	na
635	121	173	56009	na	na
636	121	196	75369	na	na
637	121	246	47001	na	na
638	121	287	59212	na	na
639	121	333	89951	na	na
640	121	357	61118	na	na
641	122	153	84100	na	na
642	122	258	39704	na	na
643	122	331	80057	na	na
644	123	130	88986	na	na
645	123	132	4265	na	na
646	123	232	16462	na	na
647	123	250	39498	na	na
648	123	323	21455	na	na
649	124	169	19934	na	na
650	124	170	96179	na	na
651	124	193	40528	na	na
652	124	230	32395	na	na
653	124	284	35949	na	na
654	125	280	23479	na	na
655	125	341	96170	na	na
656	126	204	3850	na	na
657	126	212	2282	na	na
658	126	249	78037	na	na
659	126	348	11516	na	na
660	126	370	4171	na	na
661	127	308	11142	na	na
662	128	332	76848	na	na
663	128	390	14811	na	na
664	129	134	7060	na	na
665	129	149	15181	na	na
666	129	194	20606	na	na
667	129	230	17794	na	na
668	129	347	88640	na	na
669	129	372	86434	na	na
670	129	385	24118	na	na
671	130	249	31726	na	na
672	131	148	1226	na	na
673	131	258	13928	na	na
674	131	285	67383	na	na
675	131	287	81312	na	na
676	131	307	74032	na	na
677	131	324	81991	na	na
678	131	365	6026	na	na
679	131	378	6505	na	na
680	132	210	17526	na	na
681	132	247	61243	na	na
682	132	253	67175	na	na
683	132	328	84971	na	na
684	133	168	52601	na	na
685	133	224	91499	na	na
686	133	369	35076	na	na
687	133	385	45040	na	na
688	134	190	88104	na	na
689	134	315	63125	na	na
690	135	350	62326	na	na
691	136	194	38327	na	na
692	136	290	34517	na	na
693	136	295	68372	na	na
694	137	149	12003	na	na
695	137	155	50303	na	na
696	137	250	19748	na	na
697	137	271	48507	na	na
698	138	145	81064	na	na
699	138	160	49468	na	na
700	138	185	5995	na	na
701	138	227	24923	na	na
702	138	364	12103	na	na
703	140	247	53408	na	na
704	140	259	58227	na	na
705	140	313	78934	na	na
706	140	326	42808	na	na
707	140	383	8510	na	na
708	141	183	74215	na	na
709	141	203	12305	na	na
710	141	217	59030	na	na
711	141	262	27433	na	na
712	141	307	97014	na	na
713	141	313	63260	na	na
714	141	347	65408	na	na
715	141	348	52927	na	na
716	142	157	94356	na	na
717	142	188	3171	na	na
718	142	240	12687	na	na
719	142	313	14536	na	na
720	142	314	61378	na	na
721	142	319	91958	na	na
722	143	147	41626	na	na
723	144	162	5705	na	na
724	144	180	46572	na	na
725	144	260	2774	na	na
726	144	322	73294	na	na
727	144	332	54461	na	na
728	145	359	3261	na	na
729	145	363	76737	na	na
730	146	199	10406	na	na
731	146	212	77266	na	na
732	146	227	60808	na	na
733	147	162	60583	na	na
734	147	223	68201	na	na
735	147	244	61427	na	na
736	147	273	52618	na	na
737	147	389	66422	na	na
738	148	184	67675	na	na
739	148	226	54633	na	na
740	148	255	66317	na	na
741	148	364	76359	na	na
742	148	398	74335	na	na
743	149	162	57702	na	na
744	149	211	7204	na	na
745	149	313	54641	na	na
746	149	373	4400	na	na
747	150	368	58362	na	na
748	151	154	95211	na	na
749	151	382	6418	na	na
750	151	399	15821	na	na
751	152	355	11418	na	na
752	152	363	48789	na	na
753	153	206	50059	na	na
754	153	330	92351	na	na
755	153	366	85607	na	na
756	154	189	14182	na	na
757	154	254	94885	na	na
758	154	273	99501	na	na
759	154	329	21890	na	na
760	155	173	45850	na	na
761	155	176	24398	na	na
762	155	189	96102	na	na
763	155	191	74818	na	na
764	155	204	39397	na	na
765	155	210	94691	na	na
766	155	247	82360	na	na
767	155	320	33291	na	na
768	155	389	29826	na	na
769	156	181	2393	na	na
770	156	212	33127	na	na
771	156	316	2130	na	na
772	157	361	53542	na	na
773	158	221	32636	na	na
774	158	284	1756	na	na
775	158	285	7179	na	na
776	159	203	84896	na	na
777	159	211	46072	na	na
778	159	219	42495	na	na
779	159	229	9531	na	na
780	159	356	13478	na	na
781	159	373	54181	na	na
782	159	395	75869	na	na
783	160	245	84061	na	na
784	160	297	79072	na	na
785	160	328	58723	na	na
786	160	377	23160	na	na
787	161	342	22941	na	na
788	161	395	3206	na	na
789	162	190	39422	na	na
790	162	200	52484	na	na
791	162	210	79326	na	na
792	162	233	45798	na	na
793	162	278	22959	na	na
794	163	198	91493	na	na
795	163	213	9791	na	na
796	163	319	4241	na	na
797	164	181	18031	na	na
798	164	281	49671	na	na
799	164	321	73431	na	na
800	164	334	71351	na	na
801	165	231	75996	na	na
802	165	269	77061	na	na
803	166	182	5703	na	na
804	166	199	7051	na	na
805	166	302	99396	na	na
806	167	195	20692	na	na
807	168	191	30860	na	na
808	168	199	8830	na	na
809	168	346	39310	na	na
810	169	221	93931	na	na
811	169	342	97882	na	na
812	170	186	15349	na	na
813	170	285	28676	na	na
814	170	337	17936	na	na
815	170	340	88760	na	na
816	170	346	66213	na	na
817	170	380	36198	na	na
818	170	381	6354	na	na
819	171	239	25087	na	na
820	171	263	72993	na	na
821	171	267	63214	na	na
822	171	320	37902	na	na
823	172	185	1932	na	na
824	172	242	94625	na	na
825	172	307	76410	na	na
826	172	362	23099	na	na
827	172	370	96486	na	na
828	172	382	27589	na	na
829	173	219	44459	na	na
830	173	228	1288	na	na
831	173	325	39695	na	na
832	174	215	34892	na	na
833	174	399	33594	na	na
834	176	185	81843	na	na
835	176	232	94846	na	na
836	176	345	11288	na	na
837	176	348	89828	na	na
838	177	220	27978	na	na
839	177	373	50538	na	na
840	178	193	29455	na	na
841	178	286	26629	na	na
842	179	262	12846	na	na
843	179	277	25380	na	na
844	179	282	27873	na	na
845	180	216	14051	na	na
846	180	230	33705	na	na
847	180	302	35952	na	na
848	181	266	25762	na	na
849	181	399	53036	na	na
850	182	309	35401	na	na
851	182	378	85800	na	na
852	183	214	25443	na	na
853	183	294	61797	na	na
854	183	352	39569	na	na
855	183	372	47924	na	na
856	184	255	57780	na	na
857	184	400	76014	na	na
858	186	349	31192	na	na
859	186	356	81886	na	na
860	186	376	23953	na	na
861	187	232	6024	na	na
862	187	297	42567	na	na
863	187	358	92692	na	na
864	188	308	40697	na	na
865	189	264	88859	na	na
866	189	272	35692	na	na
867	190	259	17854	na	na
868	190	286	50088	na	na
869	190	288	67943	na	na
870	190	346	31169	na	na
871	191	302	69705	na	na
872	191	313	17832	na	na
873	191	359	39987	na	na
874	191	392	51360	na	na
875	192	260	34559	na	na
876	192	308	43675	na	na
877	192	387	75610	na	na
878	193	213	60128	na	na
879	193	221	25692	na	na
880	193	279	41864	na	na
881	193	345	33987	na	na
882	193	389	98183	na	na
883	194	201	40304	na	na
884	194	296	50938	na	na
885	196	208	76979	na	na
886	196	215	65312	na	na
887	196	325	95180	na	na
888	196	339	49160	na	na
889	197	279	14583	na	na
890	197	302	34310	na	na
891	198	260	37591	na	na
892	198	385	92442	na	na
893	198	395	89463	na	na
894	199	356	60633	na	na
895	199	368	69605	na	na
896	200	206	70678	na	na
897	200	212	23383	na	na
898	200	253	43759	na	na
899	201	217	58653	na	na
900	201	241	93715	na	na
901	201	351	58821	na	na
902	201	372	44911	na	na
903	201	384	12351	na	na
904	202	204	51378	na	na
905	202	279	47565	na	na
906	203	339	38247	na	na
907	205	333	2367	na	na
908	205	364	70835	na	na
909	206	398	9707	na	na
910	207	267	53982	na	na
911	207	373	99268	na	na
912	207	382	20652	na	na
913	208	247	20241	na	na
914	208	301	14638	na	na
915	208	340	1815	na	na
916	208	380	59611	na	na
917	208	381	69445	na	na
918	209	337	87704	na	na
919	210	322	65459	na	na
920	210	369	73518	na	na
921	210	372	22633	na	na
922	210	387	47281	na	na
923	211	308	52542	na	na
924	211	351	5062	na	na
925	211	395	10987	na	na
926	211	399	69090	na	na
927	212	285	16313	na	na
928	212	339	25296	na	na
929	213	312	42206	na	na
930	214	294	18177	na	na
931	214	316	37810	na	na
932	214	373	22339	na	na
933	215	252	72617	na	na
934	215	297	6126	na	na
935	215	302	36346	na	na
936	216	339	76455	na	na
937	216	375	11269	na	na
938	217	218	5885	na	na
939	217	235	61556	na	na
940	217	247	92905	na	na
941	217	250	59598	na	na
942	217	285	84344	na	na
943	217	376	72831	na	na
944	218	252	88296	na	na
945	218	264	69781	na	na
946	219	300	50476	na	na
947	219	329	62874	na	na
948	219	375	67829	na	na
949	219	383	31435	na	na
950	219	388	39917	na	na
951	220	250	83471	na	na
952	220	252	11787	na	na
953	220	253	48552	na	na
954	220	259	78086	na	na
955	220	298	14461	na	na
956	221	297	26060	na	na
957	221	355	19429	na	na
958	222	241	19792	na	na
959	222	278	2033	na	na
960	222	388	12219	na	na
961	223	228	11050	na	na
962	223	322	15569	na	na
963	224	282	60441	na	na
964	225	243	91022	na	na
965	225	276	83384	na	na
966	225	301	16189	na	na
967	225	368	51488	na	na
968	226	389	8502	na	na
969	227	339	42314	na	na
970	227	385	3597	na	na
971	228	302	70553	na	na
972	228	333	39327	na	na
973	228	372	74653	na	na
974	228	387	14862	na	na
975	229	239	21447	na	na
976	229	241	46382	na	na
977	229	321	60541	na	na
978	229	367	98232	na	na
979	229	379	84340	na	na
980	230	276	56214	na	na
981	230	303	72687	na	na
982	230	304	1667	na	na
983	230	315	37828	na	na
984	230	374	5696	na	na
985	231	266	99967	na	na
986	231	344	71465	na	na
987	232	264	81382	na	na
988	232	303	82606	na	na
989	232	315	61205	na	na
990	233	243	71603	na	na
991	233	301	16625	na	na
992	233	313	61125	na	na
993	234	312	31814	na	na
994	235	335	82838	na	na
995	235	368	31476	na	na
996	236	296	47862	na	na
997	236	304	42957	na	na
998	236	341	66756	na	na
999	236	356	98622	na	na
1000	237	365	97461	na	na
1001	237	368	24635	na	na
1002	238	272	84802	na	na
1003	238	280	17232	na	na
1004	238	367	354	na	na
1005	239	260	89147	na	na
1006	239	292	78745	na	na
1007	239	312	76511	na	na
1008	240	329	33799	na	na
1009	240	342	93271	na	na
1010	240	376	2958	na	na
1011	243	333	66541	na	na
1012	244	333	68603	na	na
1013	246	309	92497	na	na
1014	246	342	76503	na	na
1015	247	282	43335	na	na
1016	247	317	12592	na	na
1017	247	358	87748	na	na
1018	249	273	80555	na	na
1019	249	312	18940	na	na
1020	249	322	15010	na	na
1021	249	343	49033	na	na
1022	250	309	60557	na	na
1023	250	313	13731	na	na
1024	251	257	40143	na	na
1025	251	302	89342	na	na
1026	251	345	80791	na	na
1027	251	386	29013	na	na
1028	251	391	58634	na	na
1029	254	292	87055	na	na
1030	254	305	8264	na	na
1031	254	326	25360	na	na
1032	255	333	80502	na	na
1033	256	294	63336	na	na
1034	256	323	66592	na	na
1035	256	358	61673	na	na
1036	256	376	63231	na	na
1037	257	281	50572	na	na
1038	257	397	18632	na	na
1039	258	360	45612	na	na
1040	259	263	1951	na	na
1041	259	378	96835	na	na
1042	260	331	76553	na	na
1043	261	263	56260	na	na
1044	261	294	87154	na	na
1045	261	314	44360	na	na
1046	261	355	15970	na	na
1047	261	361	37106	na	na
1048	262	289	61170	na	na
1049	262	311	31190	na	na
1050	262	314	71272	na	na
1051	263	272	70134	na	na
1052	263	321	97830	na	na
1053	263	323	44575	na	na
1054	264	279	9505	na	na
1055	265	333	15525	na	na
1056	266	271	75111	na	na
1057	269	296	6761	na	na
1058	269	311	95058	na	na
1059	269	343	70445	na	na
1060	270	324	34084	na	na
1061	271	301	27301	na	na
1062	272	383	513	na	na
1063	273	278	99508	na	na
1064	273	292	71312	na	na
1065	273	298	99808	na	na
1066	273	380	82741	na	na
1067	274	343	36705	na	na
1068	274	385	45525	na	na
1069	275	286	77155	na	na
1070	275	294	69411	na	na
1071	275	358	47032	na	na
1072	275	393	969	na	na
1073	277	374	60055	na	na
1074	278	388	63381	na	na
1075	279	285	21242	na	na
1076	281	378	23640	na	na
1077	282	293	17680	na	na
1078	282	301	80015	na	na
1079	282	302	69670	na	na
1080	282	367	99348	na	na
1081	283	292	88103	na	na
1082	284	322	15236	na	na
1083	284	335	46196	na	na
1084	284	345	26104	na	na
1085	285	298	72126	na	na
1086	285	305	2326	na	na
1087	285	334	37653	na	na
1088	285	378	78435	na	na
1089	286	329	32788	na	na
1090	286	356	74435	na	na
1091	286	380	99343	na	na
1092	286	399	19912	na	na
1093	287	346	48109	na	na
1094	287	370	41857	na	na
1095	288	292	61502	na	na
1096	288	334	86279	na	na
1097	288	382	15896	na	na
1098	289	369	89251	na	na
1099	290	314	37529	na	na
1100	291	325	20882	na	na
1101	295	307	74871	na	na
1102	296	359	14767	na	na
1103	296	374	99166	na	na
1104	297	306	82896	na	na
1105	297	325	51788	na	na
1106	299	317	10613	na	na
1107	299	341	47757	na	na
1108	299	362	24812	na	na
1109	299	380	47642	na	na
1110	301	360	74754	na	na
1111	302	400	40310	na	na
1112	304	353	51562	na	na
1113	305	376	52615	na	na
1114	307	313	11165	na	na
1115	307	337	82701	na	na
1116	308	348	27897	na	na
1117	309	323	3348	na	na
1118	310	312	98034	na	na
1119	310	342	88492	na	na
1120	310	355	72993	na	na
1121	311	329	37709	na	na
1122	312	363	9687	na	na
1123	312	366	88010	na	na
1124	313	354	80762	na	na
1125	314	393	96840	na	na
1126	315	347	74465	na	na
1127	316	328	55648	na	na
1128	316	373	76480	na	na
1129	318	400	63810	na	na
1130	319	364	81513	na	na
1131	319	379	62623	na	na
1132	322	398	56468	na	na
1133	323	348	99855	na	na
1134	323	350	56323	na	na
1135	323	400	49564	na	na
1136	324	350	84889	na	na
1137	324	362	57554	na	na
1138	324	383	38857	na	na
1139	324	384	45445	na	na
1140	325	351	99292	na	na
1141	326	351	43011	na	na
1142	326	374	16670	na	na
1143	327	352	52535	na	na
1144	329	395	17855	na	na
1145	330	335	75833	na	na
1146	330	360	82698	na	na
1147	331	391	54497	na	na
1148	331	398	51348	na	na
1149	333	376	50459	na	na
1150	333	377	14136	na	na
1151	335	342	9587	na	na
1152	335	343	40796	na	na
1153	336	344	87827	na	na
1154	339	377	78524	na	na
1155	341	358	35072	na	na
1156	346	380	8081	na	na
1157	347	398	67452	na	na
1158	348	376	28735	na	na
1159	350	391	66389	na	na
1160	351	358	4168	na	na
1161	355	381	22300	na	na
1162	356	361	41596	na	na
1163	361	368	31982	na	na
1164	365	367	5025	na	na
1165	366	373	64265	na	na
1166	366	379	55915	na	na
1167	367	400	25754	na	na
1168	368	397	3857	na	na
1169	372	386	62156	na	na
1170	373	387	43843	na	na
1171	375	395	2875	na	na
1172	377	397	87465	na	na
1173	382	384	12904	na	na
1174	385	392	55185	na	na
1175	391	393	66563	na	na
ring
